5 5
3 21 1 13 0 86 4 35 2 47
1 86 4 28 0 21 2 18 3 31
3 60 0 37 1 21 4 14 2 89
1 91 4 60 2 23 3 95 0 29
3 47 2 30 1 90 0 84 4 38
-1
0 1 3 5
0 4 5
0 3 4 5
0 2 4 5
0 2 4 5
-2
29 147 289
212 214
154 197 329
206 344 410
101 336 453

404 7
2 11 7 23 19
15 1 5 22 12
21 17 4 8 14
0 20 10 18 9
16 3 6 13 24
